(declare-const random_init Int)
(declare-const x_init Int)
(declare-const y_init Int)
(declare-const c_0 Int)
(declare-const c_1 Int)
(declare-const c_2 Int)
(declare-const c_3 Int)
(declare-const c_4 Int)
(declare-const c_5 Int)
(declare-const c_6 Int)
(declare-const c_7 Int)
(declare-const c_8 Int)
(declare-const c_9 Int)
(declare-const c_10 Int)
(declare-const c_11 Int)
(declare-const c_12 Int)
(declare-const c_13 Int)
(declare-const c_14 Int)
(declare-const c_15 Int)
(declare-const c_16 Int)
(declare-const c_17 Int)
(declare-const c_18 Int)
(declare-const c_19 Int)
(declare-const c_20 Int)
(declare-const c_21 Int)
(declare-const c_22 Int)
(declare-const c_23 Int)
(declare-const c_24 Int)
(declare-const c_25 Int)
(assert (< c_6 0))
(assert (and (>= (+ (* 1 c_7 ) (* (- 1) random_init ) ) 0) (>= (+ (* (- 1) c_7 ) (* 1 random_init ) ) 0) (>= (+ (* 1 c_8 ) (* (- 1) x_init ) ) 0) (>= (+ (* (- 1) c_8 ) (* 1 x_init ) ) 0) (>= (+ (* 1 c_9 ) (* (- 1) y_init ) ) 0) (>= (+ (* (- 1) c_9 ) (* 1 y_init ) ) 0) ))
(assert (forall ((random Real) (x Real) (y Real) (_r_0 Real) (_r_1 Real) ) (=> (and (>= (+ (* (- 1) 1) (* (- 1) c_10 ) (* (- 1) c_11 random ) (* (- 1) c_12 x ) (* (- 1) c_13 y ) ) 0) (>= (+ (* 1 c_7 ) (* (- 1) random ) ) 0) (>= (+ (* (- 1) c_7 ) (* 1 random ) ) 0) (>= (+ (* 1 c_8 ) (* (- 1) x ) ) 0) (>= (+ (* (- 1) c_8 ) (* 1 x ) ) 0) (>= (+ (* 1 c_9 ) (* (- 1) y ) ) 0) (>= (+ (* (- 1) c_9 ) (* 1 y ) ) 0) ) (>= (+ (* 1 c_18 ) (* 1 c_19 random ) (* 1 c_20 x ) (* 1 c_21 y ) ) 0) )))
(assert (forall ((random Real) (x Real) (y Real) (_r_0 Real) (_r_1 Real) ) (=> (and (>= (+ (* (- 1) 1) (* (- 1) c_10 ) (* (- 1) c_11 random ) (* (- 1) c_12 x ) (* (- 1) c_13 y ) ) 0) (>= (+ (* 1 c_7 ) (* (- 1) random ) ) 0) (>= (+ (* (- 1) c_7 ) (* 1 random ) ) 0) (>= (+ (* 1 c_8 ) (* (- 1) x ) ) 0) (>= (+ (* (- 1) c_8 ) (* 1 x ) ) 0) (>= (+ (* 1 c_9 ) (* (- 1) y ) ) 0) (>= (+ (* (- 1) c_9 ) (* 1 y ) ) 0) ) (>= (+ (* 1 c_22 ) (* 1 c_23 random ) (* 1 c_24 x ) (* 1 c_25 y ) ) 0) )))
(assert (forall ((random Real) (x Real) (y Real) (_r_0 Real) (_r_1 Real) ) (=> (and (>= (+ (* (- 1) 1) (* (- 1) c_14 ) (* (- 1) c_15 random ) (* (- 1) c_16 x ) (* (- 1) c_17 y ) ) 0) (>= (+ (* 1 c_7 ) (* (- 1) random ) ) 0) (>= (+ (* (- 1) c_7 ) (* 1 random ) ) 0) (>= (+ (* 1 c_8 ) (* (- 1) x ) ) 0) (>= (+ (* (- 1) c_8 ) (* 1 x ) ) 0) (>= (+ (* 1 c_9 ) (* (- 1) y ) ) 0) (>= (+ (* (- 1) c_9 ) (* 1 y ) ) 0) ) (>= (+ (* 1 c_18 ) (* 1 c_19 random ) (* 1 c_20 x ) (* 1 c_21 y ) ) 0) )))
(assert (forall ((random Real) (x Real) (y Real) (_r_0 Real) (_r_1 Real) ) (=> (and (>= (+ (* (- 1) 1) (* (- 1) c_14 ) (* (- 1) c_15 random ) (* (- 1) c_16 x ) (* (- 1) c_17 y ) ) 0) (>= (+ (* 1 c_7 ) (* (- 1) random ) ) 0) (>= (+ (* (- 1) c_7 ) (* 1 random ) ) 0) (>= (+ (* 1 c_8 ) (* (- 1) x ) ) 0) (>= (+ (* (- 1) c_8 ) (* 1 x ) ) 0) (>= (+ (* 1 c_9 ) (* (- 1) y ) ) 0) (>= (+ (* (- 1) c_9 ) (* 1 y ) ) 0) ) (>= (+ (* 1 c_22 ) (* 1 c_23 random ) (* 1 c_24 x ) (* 1 c_25 y ) ) 0) )))
(assert (forall ((random Real) (x Real) (y Real) (_r_0 Real) (_r_1 Real) ) (=> (and (>= (+ (* (- 1) 1) (* (- 1) _r_0 c_11 ) (* (- 1) _r_0 c_13 ) (* (- 1) c_10 ) (* 1 c_12 ) (* (- 1) c_12 x ) ) 0) (>= (+ (* 1 _r_0 ) (* (- 1) _r_1 c_0 ) (* 1 c_1 ) (* (- 1) c_1 x ) (* (- 1) c_2 y ) ) 0) (>= (+ (* (- 1) _r_0 ) (* 1 _r_1 c_0 ) (* (- 1) c_1 ) (* 1 c_1 x ) (* 1 c_2 y ) ) 0) (>= (+ (* 41 1) (* (- 1) _r_1 ) ) 0) (>= (+ (* 1 _r_1 ) (* (- 1) c_3 random ) (* (- 1) c_4 x ) (* (- 1) c_5 y ) ) 0) (>= (+ (* (- 1) _r_1 ) (* 1 c_3 random ) (* 1 c_4 x ) (* 1 c_5 y ) ) 0) (>= (+ (* (- 1) 1) (* 1 x ) ) 0) (>= (+ (* (- 1) 1) (* 1 y ) ) 0) (>= (+ (* 1 c_10 ) (* 1 c_11 random ) (* 1 c_12 x ) (* 1 c_13 y ) ) 0) (>= (+ (* 1 c_14 ) (* 1 c_15 random ) (* 1 c_16 x ) (* 1 c_17 y ) ) 0) ) (>= (+ (* 1 _r_0 c_19 ) (* 1 _r_0 c_21 ) (* 1 c_18 ) (* (- 1) c_20 ) (* 1 c_20 x ) ) 0) )))
(assert (forall ((random Real) (x Real) (y Real) (_r_0 Real) (_r_1 Real) ) (=> (and (>= (+ (* (- 1) 1) (* (- 1) _r_0 c_11 ) (* (- 1) _r_0 c_13 ) (* (- 1) c_10 ) (* 1 c_12 ) (* (- 1) c_12 x ) ) 0) (>= (+ (* 1 _r_0 ) (* (- 1) _r_1 c_0 ) (* 1 c_1 ) (* (- 1) c_1 x ) (* (- 1) c_2 y ) ) 0) (>= (+ (* (- 1) _r_0 ) (* 1 _r_1 c_0 ) (* (- 1) c_1 ) (* 1 c_1 x ) (* 1 c_2 y ) ) 0) (>= (+ (* 41 1) (* (- 1) _r_1 ) ) 0) (>= (+ (* 1 _r_1 ) (* (- 1) c_3 random ) (* (- 1) c_4 x ) (* (- 1) c_5 y ) ) 0) (>= (+ (* (- 1) _r_1 ) (* 1 c_3 random ) (* 1 c_4 x ) (* 1 c_5 y ) ) 0) (>= (+ (* (- 1) 1) (* 1 x ) ) 0) (>= (+ (* (- 1) 1) (* 1 y ) ) 0) (>= (+ (* 1 c_10 ) (* 1 c_11 random ) (* 1 c_12 x ) (* 1 c_13 y ) ) 0) (>= (+ (* 1 c_14 ) (* 1 c_15 random ) (* 1 c_16 x ) (* 1 c_17 y ) ) 0) ) (>= (+ (* 1 _r_0 c_23 ) (* 1 _r_0 c_25 ) (* 1 c_22 ) (* (- 1) c_24 ) (* 1 c_24 x ) ) 0) )))
(assert (forall ((random Real) (x Real) (y Real) (_r_0 Real) (_r_1 Real) ) (=> (and (>= (+ (* (- 1) 1) (* (- 1) _r_0 c_15 ) (* (- 1) _r_0 c_17 ) (* (- 1) c_14 ) (* 1 c_16 ) (* (- 1) c_16 x ) ) 0) (>= (+ (* 1 _r_0 ) (* (- 1) _r_1 c_0 ) (* 1 c_1 ) (* (- 1) c_1 x ) (* (- 1) c_2 y ) ) 0) (>= (+ (* (- 1) _r_0 ) (* 1 _r_1 c_0 ) (* (- 1) c_1 ) (* 1 c_1 x ) (* 1 c_2 y ) ) 0) (>= (+ (* 41 1) (* (- 1) _r_1 ) ) 0) (>= (+ (* 1 _r_1 ) (* (- 1) c_3 random ) (* (- 1) c_4 x ) (* (- 1) c_5 y ) ) 0) (>= (+ (* (- 1) _r_1 ) (* 1 c_3 random ) (* 1 c_4 x ) (* 1 c_5 y ) ) 0) (>= (+ (* (- 1) 1) (* 1 x ) ) 0) (>= (+ (* (- 1) 1) (* 1 y ) ) 0) (>= (+ (* 1 c_10 ) (* 1 c_11 random ) (* 1 c_12 x ) (* 1 c_13 y ) ) 0) (>= (+ (* 1 c_14 ) (* 1 c_15 random ) (* 1 c_16 x ) (* 1 c_17 y ) ) 0) ) (>= (+ (* 1 _r_0 c_19 ) (* 1 _r_0 c_21 ) (* 1 c_18 ) (* (- 1) c_20 ) (* 1 c_20 x ) ) 0) )))
(assert (forall ((random Real) (x Real) (y Real) (_r_0 Real) (_r_1 Real) ) (=> (and (>= (+ (* (- 1) 1) (* (- 1) _r_0 c_15 ) (* (- 1) _r_0 c_17 ) (* (- 1) c_14 ) (* 1 c_16 ) (* (- 1) c_16 x ) ) 0) (>= (+ (* 1 _r_0 ) (* (- 1) _r_1 c_0 ) (* 1 c_1 ) (* (- 1) c_1 x ) (* (- 1) c_2 y ) ) 0) (>= (+ (* (- 1) _r_0 ) (* 1 _r_1 c_0 ) (* (- 1) c_1 ) (* 1 c_1 x ) (* 1 c_2 y ) ) 0) (>= (+ (* 41 1) (* (- 1) _r_1 ) ) 0) (>= (+ (* 1 _r_1 ) (* (- 1) c_3 random ) (* (- 1) c_4 x ) (* (- 1) c_5 y ) ) 0) (>= (+ (* (- 1) _r_1 ) (* 1 c_3 random ) (* 1 c_4 x ) (* 1 c_5 y ) ) 0) (>= (+ (* (- 1) 1) (* 1 x ) ) 0) (>= (+ (* (- 1) 1) (* 1 y ) ) 0) (>= (+ (* 1 c_10 ) (* 1 c_11 random ) (* 1 c_12 x ) (* 1 c_13 y ) ) 0) (>= (+ (* 1 c_14 ) (* 1 c_15 random ) (* 1 c_16 x ) (* 1 c_17 y ) ) 0) ) (>= (+ (* 1 _r_0 c_23 ) (* 1 _r_0 c_25 ) (* 1 c_22 ) (* (- 1) c_24 ) (* 1 c_24 x ) ) 0) )))
(assert (forall ((random Real) (x Real) (y Real) (_r_0 Real) (_r_1 Real) ) (=> (and (>= (+ (* (- 1) 1) (* (- 1) _r_0 c_11 ) (* (- 1) _r_0 c_13 ) (* (- 1) c_10 ) (* 1 c_12 ) (* (- 1) c_12 x ) ) 0) (>= (+ (* 1 _r_0 ) (* (- 1) _r_1 c_0 ) (* 1 c_1 ) (* (- 1) c_1 x ) (* (- 1) c_2 y ) ) 0) (>= (+ (* (- 1) _r_0 ) (* 1 _r_1 c_0 ) (* (- 1) c_1 ) (* 1 c_1 x ) (* 1 c_2 y ) ) 0) (>= (+ (* 41 1) (* (- 1) _r_1 ) ) 0) (>= (+ (* 1 _r_1 ) (* (- 1) c_3 random ) (* (- 1) c_4 x ) (* (- 1) c_5 y ) ) 0) (>= (+ (* (- 1) _r_1 ) (* 1 c_3 random ) (* 1 c_4 x ) (* 1 c_5 y ) ) 0) (>= (+ (* (- 1) 1) (* 1 x ) ) 0) (>= (+ (* (- 1) 1) (* 1 y ) ) 0) (>= (+ (* 1 c_18 ) (* 1 c_19 random ) (* 1 c_20 x ) (* 1 c_21 y ) ) 0) (>= (+ (* 1 c_22 ) (* 1 c_23 random ) (* 1 c_24 x ) (* 1 c_25 y ) ) 0) ) (>= (+ (* 1 _r_0 c_19 ) (* 1 _r_0 c_21 ) (* 1 c_18 ) (* (- 1) c_20 ) (* 1 c_20 x ) ) 0) )))
(assert (forall ((random Real) (x Real) (y Real) (_r_0 Real) (_r_1 Real) ) (=> (and (>= (+ (* (- 1) 1) (* (- 1) _r_0 c_11 ) (* (- 1) _r_0 c_13 ) (* (- 1) c_10 ) (* 1 c_12 ) (* (- 1) c_12 x ) ) 0) (>= (+ (* 1 _r_0 ) (* (- 1) _r_1 c_0 ) (* 1 c_1 ) (* (- 1) c_1 x ) (* (- 1) c_2 y ) ) 0) (>= (+ (* (- 1) _r_0 ) (* 1 _r_1 c_0 ) (* (- 1) c_1 ) (* 1 c_1 x ) (* 1 c_2 y ) ) 0) (>= (+ (* 41 1) (* (- 1) _r_1 ) ) 0) (>= (+ (* 1 _r_1 ) (* (- 1) c_3 random ) (* (- 1) c_4 x ) (* (- 1) c_5 y ) ) 0) (>= (+ (* (- 1) _r_1 ) (* 1 c_3 random ) (* 1 c_4 x ) (* 1 c_5 y ) ) 0) (>= (+ (* (- 1) 1) (* 1 x ) ) 0) (>= (+ (* (- 1) 1) (* 1 y ) ) 0) (>= (+ (* 1 c_18 ) (* 1 c_19 random ) (* 1 c_20 x ) (* 1 c_21 y ) ) 0) (>= (+ (* 1 c_22 ) (* 1 c_23 random ) (* 1 c_24 x ) (* 1 c_25 y ) ) 0) ) (>= (+ (* 1 _r_0 c_23 ) (* 1 _r_0 c_25 ) (* 1 c_22 ) (* (- 1) c_24 ) (* 1 c_24 x ) ) 0) )))
(assert (forall ((random Real) (x Real) (y Real) (_r_0 Real) (_r_1 Real) ) (=> (and (>= (+ (* (- 1) 1) (* (- 1) _r_0 c_15 ) (* (- 1) _r_0 c_17 ) (* (- 1) c_14 ) (* 1 c_16 ) (* (- 1) c_16 x ) ) 0) (>= (+ (* 1 _r_0 ) (* (- 1) _r_1 c_0 ) (* 1 c_1 ) (* (- 1) c_1 x ) (* (- 1) c_2 y ) ) 0) (>= (+ (* (- 1) _r_0 ) (* 1 _r_1 c_0 ) (* (- 1) c_1 ) (* 1 c_1 x ) (* 1 c_2 y ) ) 0) (>= (+ (* 41 1) (* (- 1) _r_1 ) ) 0) (>= (+ (* 1 _r_1 ) (* (- 1) c_3 random ) (* (- 1) c_4 x ) (* (- 1) c_5 y ) ) 0) (>= (+ (* (- 1) _r_1 ) (* 1 c_3 random ) (* 1 c_4 x ) (* 1 c_5 y ) ) 0) (>= (+ (* (- 1) 1) (* 1 x ) ) 0) (>= (+ (* (- 1) 1) (* 1 y ) ) 0) (>= (+ (* 1 c_18 ) (* 1 c_19 random ) (* 1 c_20 x ) (* 1 c_21 y ) ) 0) (>= (+ (* 1 c_22 ) (* 1 c_23 random ) (* 1 c_24 x ) (* 1 c_25 y ) ) 0) ) (>= (+ (* 1 _r_0 c_19 ) (* 1 _r_0 c_21 ) (* 1 c_18 ) (* (- 1) c_20 ) (* 1 c_20 x ) ) 0) )))
(assert (forall ((random Real) (x Real) (y Real) (_r_0 Real) (_r_1 Real) ) (=> (and (>= (+ (* (- 1) 1) (* (- 1) _r_0 c_15 ) (* (- 1) _r_0 c_17 ) (* (- 1) c_14 ) (* 1 c_16 ) (* (- 1) c_16 x ) ) 0) (>= (+ (* 1 _r_0 ) (* (- 1) _r_1 c_0 ) (* 1 c_1 ) (* (- 1) c_1 x ) (* (- 1) c_2 y ) ) 0) (>= (+ (* (- 1) _r_0 ) (* 1 _r_1 c_0 ) (* (- 1) c_1 ) (* 1 c_1 x ) (* 1 c_2 y ) ) 0) (>= (+ (* 41 1) (* (- 1) _r_1 ) ) 0) (>= (+ (* 1 _r_1 ) (* (- 1) c_3 random ) (* (- 1) c_4 x ) (* (- 1) c_5 y ) ) 0) (>= (+ (* (- 1) _r_1 ) (* 1 c_3 random ) (* 1 c_4 x ) (* 1 c_5 y ) ) 0) (>= (+ (* (- 1) 1) (* 1 x ) ) 0) (>= (+ (* (- 1) 1) (* 1 y ) ) 0) (>= (+ (* 1 c_18 ) (* 1 c_19 random ) (* 1 c_20 x ) (* 1 c_21 y ) ) 0) (>= (+ (* 1 c_22 ) (* 1 c_23 random ) (* 1 c_24 x ) (* 1 c_25 y ) ) 0) ) (>= (+ (* 1 _r_0 c_23 ) (* 1 _r_0 c_25 ) (* 1 c_22 ) (* (- 1) c_24 ) (* 1 c_24 x ) ) 0) )))
(assert (forall ((random Real) (x Real) (y Real) (_r_0 Real) (_r_1 Real) ) (=> (and (>= (+ (* (- 1) 1) (* (- 1) _r_1 c_11 ) (* (- 1) c_10 ) (* (- 1) c_12 x ) (* 1 c_13 ) (* (- 1) c_13 y ) ) 0) (>= (+ (* (- 42) 1) (* 1 _r_1 ) ) 0) (>= (+ (* 1 _r_1 ) (* (- 1) c_3 random ) (* (- 1) c_4 x ) (* (- 1) c_5 y ) ) 0) (>= (+ (* (- 1) _r_1 ) (* 1 c_3 random ) (* 1 c_4 x ) (* 1 c_5 y ) ) 0) (>= (+ (* (- 1) 1) (* 1 x ) ) 0) (>= (+ (* (- 1) 1) (* 1 y ) ) 0) (>= (+ (* 1 c_10 ) (* 1 c_11 random ) (* 1 c_12 x ) (* 1 c_13 y ) ) 0) (>= (+ (* 1 c_14 ) (* 1 c_15 random ) (* 1 c_16 x ) (* 1 c_17 y ) ) 0) ) (>= (+ (* 1 _r_1 c_19 ) (* 1 c_18 ) (* 1 c_20 x ) (* (- 1) c_21 ) (* 1 c_21 y ) ) 0) )))
(assert (forall ((random Real) (x Real) (y Real) (_r_0 Real) (_r_1 Real) ) (=> (and (>= (+ (* (- 1) 1) (* (- 1) _r_1 c_11 ) (* (- 1) c_10 ) (* (- 1) c_12 x ) (* 1 c_13 ) (* (- 1) c_13 y ) ) 0) (>= (+ (* (- 42) 1) (* 1 _r_1 ) ) 0) (>= (+ (* 1 _r_1 ) (* (- 1) c_3 random ) (* (- 1) c_4 x ) (* (- 1) c_5 y ) ) 0) (>= (+ (* (- 1) _r_1 ) (* 1 c_3 random ) (* 1 c_4 x ) (* 1 c_5 y ) ) 0) (>= (+ (* (- 1) 1) (* 1 x ) ) 0) (>= (+ (* (- 1) 1) (* 1 y ) ) 0) (>= (+ (* 1 c_10 ) (* 1 c_11 random ) (* 1 c_12 x ) (* 1 c_13 y ) ) 0) (>= (+ (* 1 c_14 ) (* 1 c_15 random ) (* 1 c_16 x ) (* 1 c_17 y ) ) 0) ) (>= (+ (* 1 _r_1 c_23 ) (* 1 c_22 ) (* 1 c_24 x ) (* (- 1) c_25 ) (* 1 c_25 y ) ) 0) )))
(assert (forall ((random Real) (x Real) (y Real) (_r_0 Real) (_r_1 Real) ) (=> (and (>= (+ (* (- 1) 1) (* (- 1) _r_1 c_15 ) (* (- 1) c_14 ) (* (- 1) c_16 x ) (* 1 c_17 ) (* (- 1) c_17 y ) ) 0) (>= (+ (* (- 42) 1) (* 1 _r_1 ) ) 0) (>= (+ (* 1 _r_1 ) (* (- 1) c_3 random ) (* (- 1) c_4 x ) (* (- 1) c_5 y ) ) 0) (>= (+ (* (- 1) _r_1 ) (* 1 c_3 random ) (* 1 c_4 x ) (* 1 c_5 y ) ) 0) (>= (+ (* (- 1) 1) (* 1 x ) ) 0) (>= (+ (* (- 1) 1) (* 1 y ) ) 0) (>= (+ (* 1 c_10 ) (* 1 c_11 random ) (* 1 c_12 x ) (* 1 c_13 y ) ) 0) (>= (+ (* 1 c_14 ) (* 1 c_15 random ) (* 1 c_16 x ) (* 1 c_17 y ) ) 0) ) (>= (+ (* 1 _r_1 c_19 ) (* 1 c_18 ) (* 1 c_20 x ) (* (- 1) c_21 ) (* 1 c_21 y ) ) 0) )))
(assert (forall ((random Real) (x Real) (y Real) (_r_0 Real) (_r_1 Real) ) (=> (and (>= (+ (* (- 1) 1) (* (- 1) _r_1 c_15 ) (* (- 1) c_14 ) (* (- 1) c_16 x ) (* 1 c_17 ) (* (- 1) c_17 y ) ) 0) (>= (+ (* (- 42) 1) (* 1 _r_1 ) ) 0) (>= (+ (* 1 _r_1 ) (* (- 1) c_3 random ) (* (- 1) c_4 x ) (* (- 1) c_5 y ) ) 0) (>= (+ (* (- 1) _r_1 ) (* 1 c_3 random ) (* 1 c_4 x ) (* 1 c_5 y ) ) 0) (>= (+ (* (- 1) 1) (* 1 x ) ) 0) (>= (+ (* (- 1) 1) (* 1 y ) ) 0) (>= (+ (* 1 c_10 ) (* 1 c_11 random ) (* 1 c_12 x ) (* 1 c_13 y ) ) 0) (>= (+ (* 1 c_14 ) (* 1 c_15 random ) (* 1 c_16 x ) (* 1 c_17 y ) ) 0) ) (>= (+ (* 1 _r_1 c_23 ) (* 1 c_22 ) (* 1 c_24 x ) (* (- 1) c_25 ) (* 1 c_25 y ) ) 0) )))
(assert (forall ((random Real) (x Real) (y Real) (_r_0 Real) (_r_1 Real) ) (=> (and (>= (+ (* (- 1) 1) (* (- 1) _r_1 c_11 ) (* (- 1) c_10 ) (* (- 1) c_12 x ) (* 1 c_13 ) (* (- 1) c_13 y ) ) 0) (>= (+ (* (- 42) 1) (* 1 _r_1 ) ) 0) (>= (+ (* 1 _r_1 ) (* (- 1) c_3 random ) (* (- 1) c_4 x ) (* (- 1) c_5 y ) ) 0) (>= (+ (* (- 1) _r_1 ) (* 1 c_3 random ) (* 1 c_4 x ) (* 1 c_5 y ) ) 0) (>= (+ (* (- 1) 1) (* 1 x ) ) 0) (>= (+ (* (- 1) 1) (* 1 y ) ) 0) (>= (+ (* 1 c_18 ) (* 1 c_19 random ) (* 1 c_20 x ) (* 1 c_21 y ) ) 0) (>= (+ (* 1 c_22 ) (* 1 c_23 random ) (* 1 c_24 x ) (* 1 c_25 y ) ) 0) ) (>= (+ (* 1 _r_1 c_19 ) (* 1 c_18 ) (* 1 c_20 x ) (* (- 1) c_21 ) (* 1 c_21 y ) ) 0) )))
(assert (forall ((random Real) (x Real) (y Real) (_r_0 Real) (_r_1 Real) ) (=> (and (>= (+ (* (- 1) 1) (* (- 1) _r_1 c_11 ) (* (- 1) c_10 ) (* (- 1) c_12 x ) (* 1 c_13 ) (* (- 1) c_13 y ) ) 0) (>= (+ (* (- 42) 1) (* 1 _r_1 ) ) 0) (>= (+ (* 1 _r_1 ) (* (- 1) c_3 random ) (* (- 1) c_4 x ) (* (- 1) c_5 y ) ) 0) (>= (+ (* (- 1) _r_1 ) (* 1 c_3 random ) (* 1 c_4 x ) (* 1 c_5 y ) ) 0) (>= (+ (* (- 1) 1) (* 1 x ) ) 0) (>= (+ (* (- 1) 1) (* 1 y ) ) 0) (>= (+ (* 1 c_18 ) (* 1 c_19 random ) (* 1 c_20 x ) (* 1 c_21 y ) ) 0) (>= (+ (* 1 c_22 ) (* 1 c_23 random ) (* 1 c_24 x ) (* 1 c_25 y ) ) 0) ) (>= (+ (* 1 _r_1 c_23 ) (* 1 c_22 ) (* 1 c_24 x ) (* (- 1) c_25 ) (* 1 c_25 y ) ) 0) )))
(assert (forall ((random Real) (x Real) (y Real) (_r_0 Real) (_r_1 Real) ) (=> (and (>= (+ (* (- 1) 1) (* (- 1) _r_1 c_15 ) (* (- 1) c_14 ) (* (- 1) c_16 x ) (* 1 c_17 ) (* (- 1) c_17 y ) ) 0) (>= (+ (* (- 42) 1) (* 1 _r_1 ) ) 0) (>= (+ (* 1 _r_1 ) (* (- 1) c_3 random ) (* (- 1) c_4 x ) (* (- 1) c_5 y ) ) 0) (>= (+ (* (- 1) _r_1 ) (* 1 c_3 random ) (* 1 c_4 x ) (* 1 c_5 y ) ) 0) (>= (+ (* (- 1) 1) (* 1 x ) ) 0) (>= (+ (* (- 1) 1) (* 1 y ) ) 0) (>= (+ (* 1 c_18 ) (* 1 c_19 random ) (* 1 c_20 x ) (* 1 c_21 y ) ) 0) (>= (+ (* 1 c_22 ) (* 1 c_23 random ) (* 1 c_24 x ) (* 1 c_25 y ) ) 0) ) (>= (+ (* 1 _r_1 c_19 ) (* 1 c_18 ) (* 1 c_20 x ) (* (- 1) c_21 ) (* 1 c_21 y ) ) 0) )))
(assert (forall ((random Real) (x Real) (y Real) (_r_0 Real) (_r_1 Real) ) (=> (and (>= (+ (* (- 1) 1) (* (- 1) _r_1 c_15 ) (* (- 1) c_14 ) (* (- 1) c_16 x ) (* 1 c_17 ) (* (- 1) c_17 y ) ) 0) (>= (+ (* (- 42) 1) (* 1 _r_1 ) ) 0) (>= (+ (* 1 _r_1 ) (* (- 1) c_3 random ) (* (- 1) c_4 x ) (* (- 1) c_5 y ) ) 0) (>= (+ (* (- 1) _r_1 ) (* 1 c_3 random ) (* 1 c_4 x ) (* 1 c_5 y ) ) 0) (>= (+ (* (- 1) 1) (* 1 x ) ) 0) (>= (+ (* (- 1) 1) (* 1 y ) ) 0) (>= (+ (* 1 c_18 ) (* 1 c_19 random ) (* 1 c_20 x ) (* 1 c_21 y ) ) 0) (>= (+ (* 1 c_22 ) (* 1 c_23 random ) (* 1 c_24 x ) (* 1 c_25 y ) ) 0) ) (>= (+ (* 1 _r_1 c_23 ) (* 1 c_22 ) (* 1 c_24 x ) (* (- 1) c_25 ) (* 1 c_25 y ) ) 0) )))
(assert (forall ((random Real) (x Real) (y Real) (_r_0 Real) (_r_1 Real) ) (=> (and (>= (* (- 1) x ) 0) (>= (+ (* 1 c_10 ) (* 1 c_11 random ) (* 1 c_12 x ) (* 1 c_13 y ) ) 0) (>= (+ (* 1 c_14 ) (* 1 c_15 random ) (* 1 c_16 x ) (* 1 c_17 y ) ) 0) ) (>= (* 1 c_6 ) 0) )))
(assert (forall ((random Real) (x Real) (y Real) (_r_0 Real) (_r_1 Real) ) (=> (and (>= (* (- 1) x ) 0) (>= (+ (* 1 c_18 ) (* 1 c_19 random ) (* 1 c_20 x ) (* 1 c_21 y ) ) 0) (>= (+ (* 1 c_22 ) (* 1 c_23 random ) (* 1 c_24 x ) (* 1 c_25 y ) ) 0) ) (>= (* 1 c_6 ) 0) )))
(assert (forall ((random Real) (x Real) (y Real) (_r_0 Real) (_r_1 Real) ) (=> (and (>= (* (- 1) y ) 0) (>= (+ (* 1 c_10 ) (* 1 c_11 random ) (* 1 c_12 x ) (* 1 c_13 y ) ) 0) (>= (+ (* 1 c_14 ) (* 1 c_15 random ) (* 1 c_16 x ) (* 1 c_17 y ) ) 0) ) (>= (* 1 c_6 ) 0) )))
(assert (forall ((random Real) (x Real) (y Real) (_r_0 Real) (_r_1 Real) ) (=> (and (>= (* (- 1) y ) 0) (>= (+ (* 1 c_18 ) (* 1 c_19 random ) (* 1 c_20 x ) (* 1 c_21 y ) ) 0) (>= (+ (* 1 c_22 ) (* 1 c_23 random ) (* 1 c_24 x ) (* 1 c_25 y ) ) 0) ) (>= (* 1 c_6 ) 0) )))
(check-sat)
(get-model)

